* #variable= 144 #constraint= 48 #product= 432 sizeproduct= 864
min: +1 x1 x4 +1 x1 x10 +1 x1 x13 -1 x1 x25 +1 x1 x37 -1 x1 x109 +1 x2 x5 +1 x2 x11 +1 x2 x14 -1 x2 x26 +1 x2 x38 -1 x2 x110 +1 x3 x6 +1 x3 x12 +1 x3 x15 -1 x3 x27 +1 x3 x39 -1 x3 x111 -1 x4 x7 -1 x4 x16 -1 x4 x28 -1 x4 x40 -1 x4 x112 -1 x5 x8 -1 x5 x17 -1 x5 x29 -1 x5 x41 -1 x5 x113 -1 x6 x9 -1 x6 x18 -1 x6 x30 -1 x6 x42 -1 x6 x114 -1 x7 x10 +1 x7 x19 -1 x7 x31 -1 x7 x43 +1 x7 x115 -1 x8 x11 +1 x8 x20 -1 x8 x32 -1 x8 x44 +1 x8 x116 -1 x9 x12 +1 x9 x21 -1 x9 x33 -1 x9 x45 +1 x9 x117 -1 x10 x22 -1 x10 x34 +1 x10 x46 +1 x10 x118 -1 x11 x23 -1 x11 x35 +1 x11 x47 +1 x11 x119 -1 x12 x24 -1 x12 x36 +1 x12 x48 +1 x12 x120 +1 x13 x16 +1 x13 x22 -1 x13 x25 +1 x13 x49 +1 x13 x121 +1 x14 x17 +1 x14 x23 -1 x14 x26 +1 x14 x50 +1 x14 x122 +1 x15 x18 +1 x15 x24 -1 x15 x27 +1 x15 x51 +1 x15 x123 -1 x16 x19 +1 x16 x28 +1 x16 x52 +1 x16 x124 -1 x17 x20 +1 x17 x29 +1 x17 x53 +1 x17 x125 -1 x18 x21 +1 x18 x30 +1 x18 x54 +1 x18 x126 +1 x19 x22 -1 x19 x31 -1 x19 x55 +1 x19 x127 +1 x20 x23 -1 x20 x32 -1 x20 x56 +1 x20 x128 +1 x21 x24 -1 x21 x33 -1 x21 x57 +1 x21 x129 +1 x22 x34 +1 x22 x58 +1 x22 x130 +1 x23 x35 +1 x23 x59 +1 x23 x131 +1 x24 x36 +1 x24 x60 +1 x24 x132 +1 x25 x28 -1 x25 x34 +1 x25 x61 +1 x25 x133 +1 x26 x29 -1 x26 x35 +1 x26 x62 +1 x26 x134 +1 x27 x30 -1 x27 x36 +1 x27 x63 +1 x27 x135 -1 x28 x31 -1 x28 x64 -1 x28 x136 -1 x29 x32 -1 x29 x65 -1 x29 x137 -1 x30 x33 -1 x30 x66 -1 x30 x138 -1 x31 x34 +1 x31 x67 -1 x31 x139 -1 x32 x35 +1 x32 x68 -1 x32 x140 -1 x33 x36 +1 x33 x69 -1 x33 x141 -1 x34 x70 -1 x34 x142 -1 x35 x71 -1 x35 x143 -1 x36 x72 -1 x36 x144 +1 x37 x40 -1 x37 x46 -1 x37 x49 +1 x37 x61 -1 x37 x73 +1 x38 x41 -1 x38 x47 -1 x38 x50 +1 x38 x62 -1 x38 x74 +1 x39 x42 -1 x39 x48 -1 x39 x51 +1 x39 x63 -1 x39 x75 +1 x40 x43 -1 x40 x52 +1 x40 x64 -1 x40 x76 +1 x41 x44 -1 x41 x53 +1 x41 x65 -1 x41 x77 +1 x42 x45 -1 x42 x54 +1 x42 x66 -1 x42 x78 -1 x43 x46 +1 x43 x55 +1 x43 x67 -1 x43 x79 -1 x44 x47 +1 x44 x56 +1 x44 x68 -1 x44 x80 -1 x45 x48 +1 x45 x57 +1 x45 x69 -1 x45 x81 -1 x46 x58 +1 x46 x70 -1 x46 x82 -1 x47 x59 +1 x47 x71 -1 x47 x83 -1 x48 x60 +1 x48 x72 -1 x48 x84 -1 x49 x52 +1 x49 x58 +1 x49 x61 +1 x49 x85 -1 x50 x53 +1 x50 x59 +1 x50 x62 +1 x50 x86 -1 x51 x54 +1 x51 x60 +1 x51 x63 +1 x51 x87 -1 x52 x55 -1 x52 x64 -1 x52 x88 -1 x53 x56 -1 x53 x65 -1 x53 x89 -1 x54 x57 -1 x54 x66 -1 x54 x90 -1 x55 x58 -1 x55 x67 +1 x55 x91 -1 x56 x59 -1 x56 x68 +1 x56 x92 -1 x57 x60 -1 x57 x69 +1 x57 x93 -1 x58 x70 +1 x58 x94 -1 x59 x71 +1 x59 x95 -1 x60 x72 +1 x60 x96 -1 x61 x64 +1 x61 x70 -1 x61 x97 -1 x62 x65 +1 x62 x71 -1 x62 x98 -1 x63 x66 +1 x63 x72 -1 x63 x99 +1 x64 x67 -1 x64 x100 +1 x65 x68 -1 x65 x101 +1 x66 x69 -1 x66 x102 -1 x67 x70 +1 x67 x103 -1 x68 x71 +1 x68 x104 -1 x69 x72 +1 x69 x105 +1 x70 x106 +1 x71 x107 +1 x72 x108 -1 x73 x76 -1 x73 x82 +1 x73 x85 -1 x73 x97 +1 x73 x109 -1 x74 x77 -1 x74 x83 +1 x74 x86 -1 x74 x98 +1 x74 x110 -1 x75 x78 -1 x75 x84 +1 x75 x87 -1 x75 x99 +1 x75 x111 -1 x76 x79 +1 x76 x88 +1 x76 x100 -1 x76 x112 -1 x77 x80 +1 x77 x89 +1 x77 x101 -1 x77 x113 -1 x78 x81 +1 x78 x90 +1 x78 x102 -1 x78 x114 +1 x79 x82 -1 x79 x91 -1 x79 x103 +1 x79 x115 +1 x80 x83 -1 x80 x92 -1 x80 x104 +1 x80 x116 +1 x81 x84 -1 x81 x93 -1 x81 x105 +1 x81 x117 -1 x82 x94 +1 x82 x106 +1 x82 x118 -1 x83 x95 +1 x83 x107 +1 x83 x119 -1 x84 x96 +1 x84 x108 +1 x84 x120 +1 x85 x88 -1 x85 x94 +1 x85 x97 +1 x85 x121 +1 x86 x89 -1 x86 x95 +1 x86 x98 +1 x86 x122 +1 x87 x90 -1 x87 x96 +1 x87 x99 +1 x87 x123 +1 x88 x91 +1 x88 x100 -1 x88 x124 +1 x89 x92 +1 x89 x101 -1 x89 x125 +1 x90 x93 +1 x90 x102 -1 x90 x126 +1 x91 x94 -1 x91 x103 +1 x91 x127 +1 x92 x95 -1 x92 x104 +1 x92 x128 +1 x93 x96 -1 x93 x105 +1 x93 x129 -1 x94 x106 +1 x94 x130 -1 x95 x107 +1 x95 x131 -1 x96 x108 +1 x96 x132 -1 x97 x100 +1 x97 x106 -1 x97 x133 -1 x98 x101 +1 x98 x107 -1 x98 x134 -1 x99 x102 +1 x99 x108 -1 x99 x135 +1 x100 x103 +1 x100 x136 +1 x101 x104 +1 x101 x137 +1 x102 x105 +1 x102 x138 -1 x103 x106 -1 x103 x139 -1 x104 x107 -1 x104 x140 -1 x105 x108 -1 x105 x141 +1 x106 x142 +1 x107 x143 +1 x108 x144 -1 x109 x112 -1 x109 x118 +1 x109 x121 -1 x109 x133 -1 x110 x113 -1 x110 x119 +1 x110 x122 -1 x110 x134 -1 x111 x114 -1 x111 x120 +1 x111 x123 -1 x111 x135 -1 x112 x115 -1 x112 x124 +1 x112 x136 -1 x113 x116 -1 x113 x125 +1 x113 x137 -1 x114 x117 -1 x114 x126 +1 x114 x138 -1 x115 x118 -1 x115 x127 -1 x115 x139 -1 x116 x119 -1 x116 x128 -1 x116 x140 -1 x117 x120 -1 x117 x129 -1 x117 x141 +1 x118 x130 +1 x118 x142 +1 x119 x131 +1 x119 x143 +1 x120 x132 +1 x120 x144 +1 x121 x124 -1 x121 x130 -1 x121 x133 +1 x122 x125 -1 x122 x131 -1 x122 x134 +1 x123 x126 -1 x123 x132 -1 x123 x135 +1 x124 x127 +1 x124 x136 +1 x125 x128 +1 x125 x137 +1 x126 x129 +1 x126 x138 +1 x127 x130 -1 x127 x139 +1 x128 x131 -1 x128 x140 +1 x129 x132 -1 x129 x141 +1 x130 x142 +1 x131 x143 +1 x132 x144 +1 x133 x136 +1 x133 x142 +1 x134 x137 +1 x134 x143 +1 x135 x138 +1 x135 x144 +1 x136 x139 +1 x137 x140 +1 x138 x141 -1 x139 x142 -1 x140 x143 -1 x141 x144 ;
+1 x1 +1 x2 +1 x3 = 1 ;
+1 x4 +1 x5 +1 x6 = 1 ;
+1 x7 +1 x8 +1 x9 = 1 ;
+1 x10 +1 x11 +1 x12 = 1 ;
+1 x13 +1 x14 +1 x15 = 1 ;
+1 x16 +1 x17 +1 x18 = 1 ;
+1 x19 +1 x20 +1 x21 = 1 ;
+1 x22 +1 x23 +1 x24 = 1 ;
+1 x25 +1 x26 +1 x27 = 1 ;
+1 x28 +1 x29 +1 x30 = 1 ;
+1 x31 +1 x32 +1 x33 = 1 ;
+1 x34 +1 x35 +1 x36 = 1 ;
+1 x37 +1 x38 +1 x39 = 1 ;
+1 x40 +1 x41 +1 x42 = 1 ;
+1 x43 +1 x44 +1 x45 = 1 ;
+1 x46 +1 x47 +1 x48 = 1 ;
+1 x49 +1 x50 +1 x51 = 1 ;
+1 x52 +1 x53 +1 x54 = 1 ;
+1 x55 +1 x56 +1 x57 = 1 ;
+1 x58 +1 x59 +1 x60 = 1 ;
+1 x61 +1 x62 +1 x63 = 1 ;
+1 x64 +1 x65 +1 x66 = 1 ;
+1 x67 +1 x68 +1 x69 = 1 ;
+1 x70 +1 x71 +1 x72 = 1 ;
+1 x73 +1 x74 +1 x75 = 1 ;
+1 x76 +1 x77 +1 x78 = 1 ;
+1 x79 +1 x80 +1 x81 = 1 ;
+1 x82 +1 x83 +1 x84 = 1 ;
+1 x85 +1 x86 +1 x87 = 1 ;
+1 x88 +1 x89 +1 x90 = 1 ;
+1 x91 +1 x92 +1 x93 = 1 ;
+1 x94 +1 x95 +1 x96 = 1 ;
+1 x97 +1 x98 +1 x99 = 1 ;
+1 x100 +1 x101 +1 x102 = 1 ;
+1 x103 +1 x104 +1 x105 = 1 ;
+1 x106 +1 x107 +1 x108 = 1 ;
+1 x109 +1 x110 +1 x111 = 1 ;
+1 x112 +1 x113 +1 x114 = 1 ;
+1 x115 +1 x116 +1 x117 = 1 ;
+1 x118 +1 x119 +1 x120 = 1 ;
+1 x121 +1 x122 +1 x123 = 1 ;
+1 x124 +1 x125 +1 x126 = 1 ;
+1 x127 +1 x128 +1 x129 = 1 ;
+1 x130 +1 x131 +1 x132 = 1 ;
+1 x133 +1 x134 +1 x135 = 1 ;
+1 x136 +1 x137 +1 x138 = 1 ;
+1 x139 +1 x140 +1 x141 = 1 ;
+1 x142 +1 x143 +1 x144 = 1 ;
